DIMACS2
20 23 154 155 141 24 77 102 48 59 115 71 36 114 113 91 16 5 145 137 147
p edge 160 1219
e 0 3 1.0
e 0 7 1.0
e 0 115 49.0
e 0 143 1.0
e 0 63 2.0
e 0 16 38.0
e 0 2 1.0
e 0 144 1.0
e 1 101 1.0
e 1 141 25.0
e 1 156 1.0
e 1 27 1.0
e 1 112 1.0
e 1 79 1.0
e 1 92 1.0
e 2 127 1.0
e 2 114 6.0
e 2 10 1.0
e 2 126 2.0
e 2 1 1.0
e 2 150 1.0
e 2 82 1.0
e 2 157 1.0
e 3 22 1.0
e 3 94 1.0
e 3 37 1.0
e 3 118 1.0
e 3 157 1.0
e 3 121 1.0
e 3 71 36.0
e 3 82 1.0
e 4 77 13.0
e 4 130 1.0
e 4 23 1.0
e 4 87 1.0
e 4 100 1.0
e 4 47 1.0
e 4 15 1.0
e 4 150 1.0
e 5 152 43.0
e 5 61 18.0
e 5 45 33.0
e 5 6 44.0
e 5 83 11.0
e 5 118 11.0
e 6 15 1.0
e 6 128 1.0
e 6 81 1.0
e 6 102 22.0
e 6 59 37.0
e 6 119 1.0
e 6 70 1.0
e 6 125 1.0
e 7 104 1.0
e 7 77 12.0
e 7 154 28.0
e 7 70 2.0
e 7 54 1.0
e 7 150 1.0
e 7 93 1.0
e 7 139 1.0
e 8 86 1.0
e 8 26 1.0
e 8 150 1.0
e 8 39 1.0
e 8 45 1.0
e 8 16 9.0
e 8 5 40.0
e 9 25 1.0
e 9 31 2.0
e 9 128 1.0
e 9 49 1.0
e 9 129 1.0
e 9 152 1.0
e 9 139 1.0
e 10 63 3.0
e 10 18 1.0
e 10 35 1.0
e 10 38 1.0
e 10 51 1.0
e 10 62 1.0
e 10 158 1.0
e 10 54 1.0
e 11 38 1.0
e 11 48 17.0
e 11 35 1.0
e 11 119 1.0
e 11 95 1.0
e 11 66 1.0
e 11 96 1.0
e 11 4 1.0
e 12 137 37.0
e 12 89 1.0
e 12 29 1.0
e 12 11 1.0
e 12 62 1.0
e 12 45 1.0
e 12 88 1.0
e 12 9 1.0
e 13 75 2.0
e 13 119 2.0
e 13 64 1.0
e 13 141 37.0
e 13 52 1.0
e 13 126 1.0
e 13 135 1.0
e 13 50 2.0
e 14 26 1.0
e 14 2 1.0
e 14 140 1.0
e 14 83 1.0
e 14 135 1.0
e 14 97 1.0
e 14 6 1.0
e 14 139 1.0
e 15 57 1.0
e 15 7 1.0
e 15 119 1.0
e 15 146 2.0
e 15 61 2.0
e 15 49 1.0
e 15 40 1.0
e 15 16 18.0
e 16 75 49.0
e 16 31 46.0
e 16 96 41.0
e 16 93 9.0
e 16 106 18.0
e 16 148 38.0
e 16 57 9.0
e 16 39 15.0
e 17 75 1.0
e 17 121 1.0
e 17 149 1.0
e 17 136 1.0
e 17 8 2.0
e 17 119 1.0
e 17 24 27.0
e 17 144 2.0
e 18 65 1.0
e 18 19 3.0
e 18 144 2.0
e 18 20 1.0
e 18 35 1.0
e 18 2 1.0
e 18 89 1.0
e 18 51 1.0
e 19 136 1.0
e 19 137 12.0
e 19 32 1.0
e 19 77 15.0
e 19 74 1.0
e 19 128 1.0
e 20 99 1.0
e 20 101 1.0
e 20 21 1.0
e 20 54 1.0
e 20 1 1.0
e 20 15 1.0
e 20 57 1.0
e 20 62 1.0
e 21 73 1.0
e 21 136 1.0
e 21 6 1.0
e 21 9 1.0
e 21 8 1.0
e 21 101 1.0
e 21 126 1.0
e 21 114 20.0
e 22 146 1.0
e 22 15 1.0
e 22 6 1.0
e 22 48 3.0
e 22 23 36.0
e 22 25 1.0
e 22 99 2.0
e 22 47 1.0
e 23 5 44.0
e 23 118 49.0
e 23 14 39.0
e 23 134 41.0
e 23 126 5.0
e 23 30 19.0
e 23 55 12.0
e 23 122 27.0
e 24 82 47.0
e 24 141 31.0
e 24 67 25.0
e 24 23 40.0
e 24 15 1.0
e 24 63 31.0
e 24 6 21.0
e 24 93 18.0
e 25 85 1.0
e 25 108 1.0
e 25 16 21.0
e 25 147 36.0
e 25 102 41.0
e 25 66 1.0
e 25 12 1.0
e 26 140 1.0
e 26 67 1.0
e 26 57 1.0
e 26 130 2.0
e 26 36 8.0
e 26 142 2.0
e 26 123 1.0
e 26 21 1.0
e 27 117 1.0
e 27 19 1.0
e 27 110 1.0
e 27 106 1.0
e 27 100 1.0
e 27 53 1.0
e 27 28 1.0
e 27 137 32.0
e 28 116 1.0
e 28 150 1.0
e 28 152 1.0
e 28 143 1.0
e 28 102 10.0
e 28 92 1.0
e 28 16 40.0
e 28 141 34.0
e 29 31 1.0
e 29 21 1.0
e 29 150 1.0
e 29 96 1.0
e 29 7 1.0
e 29 112 1.0
e 29 33 1.0
e 29 123 1.0
e 30 86 1.0
e 30 54 1.0
e 30 138 1.0
e 30 115 35.0
e 30 100 1.0
e 30 77 14.0
e 30 24 39.0
e 30 136 1.0
e 31 148 1.0
e 31 151 2.0
e 31 134 2.0
e 31 106 1.0
e 31 90 2.0
e 31 140 1.0
e 31 130 1.0
e 32 72 1.0
e 32 106 1.0
e 32 94 1.0
e 32 127 1.0
e 32 15 1.0
e 32 85 2.0
e 32 83 1.0
e 32 129 1.0
e 33 71 36.0
e 33 153 1.0
e 33 15 1.0
e 33 156 1.0
e 33 101 1.0
e 33 41 1.0
e 33 34 1.0
e 33 12 2.0
e 34 96 1.0
e 34 103 1.0
e 34 21 1.0
e 34 71 25.0
e 34 113 42.0
e 34 95 2.0
e 34 120 1.0
e 34 109 1.0
e 35 53 1.0
e 35 13 1.0
e 35 156 1.0
e 35 138 1.0
e 35 126 1.0
e 35 82 1.0
e 35 70 2.0
e 35 72 1.0
e 36 92 32.0
e 36 14 33.0
e 36 152 43.0
e 36 143 19.0
e 36 115 43.0
e 36 48 24.0
e 36 3 42.0
e 36 81 22.0
e 37 154 25.0
e 37 143 1.0
e 37 61 1.0
e 37 10 1.0
e 37 16 37.0
e 37 26 1.0
e 37 32 1.0
e 37 95 2.0
e 38 87 1.0
e 38 79 1.0
e 38 102 16.0
e 38 41 1.0
e 38 150 2.0
e 38 21 1.0
e 38 8 1.0
e 38 48 25.0
e 39 154 7.0
e 39 44 1.0
e 39 155 17.0
e 39 80 1.0
e 39 113 31.0
e 39 69 1.0
e 39 54 1.0
e 39 27 1.0
e 40 38 1.0
e 40 101 1.0
e 40 127 1.0
e 40 113 26.0
e 40 69 1.0
e 40 157 1.0
e 40 111 1.0
e 40 73 1.0
e 41 42 1.0
e 41 7 1.0
e 41 68 1.0
e 41 17 1.0
e 41 139 1.0
e 41 37 1.0
e 41 118 1.0
e 42 49 1.0
e 42 70 1.0
e 42 93 1.0
e 42 68 1.0
e 42 144 1.0
e 42 46 1.0
e 42 15 1.0
e 42 9 1.0
e 43 26 1.0
e 43 49 1.0
e 43 158 1.0
e 43 135 2.0
e 43 99 1.0
e 43 54 1.0
e 43 143 1.0
e 44 41 1.0
e 44 85 2.0
e 44 12 1.0
e 44 54 1.0
e 44 155 49.0
e 44 36 9.0
e 44 118 1.0
e 44 135 1.0
e 45 30 1.0
e 45 60 1.0
e 45 53 1.0
e 45 127 2.0
e 45 17 1.0
e 45 82 1.0
e 46 124 1.0
e 46 149 1.0
e 46 130 2.0
e 46 7 1.0
e 46 113 5.0
e 46 48 14.0
e 46 140 1.0
e 47 80 1.0
e 47 119 1.0
e 47 126 1.0
e 47 73 1.0
e 47 69 1.0
e 47 5 41.0
e 47 143 1.0
e 48 24 21.0
e 48 10 25.0
e 48 71 8.0
e 48 119 39.0
e 48 106 18.0
e 48 84 21.0
e 48 110 23.0
e 48 29 4.0
e 49 28 1.0
e 49 20 1.0
e 49 54 1.0
e 49 109 2.0
e 49 30 2.0
e 49 12 2.0
e 49 127 1.0
e 49 101 2.0
e 50 19 1.0
e 50 7 1.0
e 50 1 1.0
e 50 73 1.0
e 50 150 1.0
e 50 113 11.0
e 50 47 1.0
e 50 59 23.0
e 51 121 1.0
e 51 2 1.0
e 51 36 34.0
e 51 130 1.0
e 51 87 1.0
e 51 102 25.0
e 51 94 1.0
e 52 133 1.0
e 52 142 1.0
e 52 128 1.0
e 52 37 1.0
e 52 140 1.0
e 52 80 1.0
e 52 101 1.0
e 52 104 1.0
e 53 155 26.0
e 53 28 1.0
e 53 69 1.0
e 53 124 2.0
e 53 18 2.0
e 53 116 1.0
e 53 125 2.0
e 53 39 1.0
e 54 110 1.0
e 54 115 25.0
e 54 70 1.0
e 54 36 14.0
e 54 157 1.0
e 54 17 1.0
e 54 142 1.0
e 54 150 1.0
e 55 49 1.0
e 55 103 1.0
e 55 120 1.0
e 55 35 1.0
e 55 147 31.0
e 55 31 2.0
e 55 146 1.0
e 55 121 1.0
e 56 53 1.0
e 56 122 1.0
e 56 108 1.0
e 56 113 42.0
e 56 38 1.0
e 56 158 1.0
e 56 84 1.0
e 56 16 4.0
e 57 8 1.0
e 57 76 1.0
e 57 109 1.0
e 57 143 1.0
e 57 134 3.0
e 57 72 1.0
e 57 107 2.0
e 57 105 2.0
e 58 39 1.0
e 58 71 31.0
e 58 60 1.0
e 58 84 2.0
e 58 151 1.0
e 58 87 1.0
e 58 116 2.0
e 58 18 2.0
e 59 65 7.0
e 59 36 37.0
e 59 143 27.0
e 59 158 2.0
e 59 87 15.0
e 59 86 36.0
e 59 19 21.0
e 59 150 34.0
e 60 98 1.0
e 60 79 1.0
e 60 12 1.0
e 60 120 1.0
e 60 1 1.0
e 60 105 1.0
e 60 132 1.0
e 60 3 1.0
e 61 4 1.0
e 61 136 1.0
e 61 129 1.0
e 61 118 1.0
e 61 68 1.0
e 61 56 1.0
e 61 42 2.0
e 62 107 1.0
e 62 82 1.0
e 62 114 2.0
e 62 151 1.0
e 62 46 1.0
e 62 92 1.0
e 62 79 1.0
e 63 67 1.0
e 63 123 1.0
e 63 22 2.0
e 63 156 1.0
e 63 13 1.0
e 63 1 1.0
e 64 96 1.0
e 64 102 5.0
e 64 147 25.0
e 64 83 1.0
e 64 12 1.0
e 64 35 1.0
e 64 52 1.0
e 64 150 3.0
e 65 148 1.0
e 65 34 1.0
e 65 5 29.0
e 65 128 1.0
e 65 3 1.0
e 65 50 1.0
e 65 51 1.0
e 65 26 1.0
e 66 54 1.0
e 66 75 2.0
e 66 87 1.0
e 66 126 1.0
e 66 80 1.0
e 66 42 1.0
e 66 135 1.0
e 67 62 1.0
e 67 28 1.0
e 67 104 1.0
e 67 47 1.0
e 67 23 47.0
e 67 21 1.0
e 67 72 2.0
e 67 137 26.0
e 68 142 2.0
e 68 20 1.0
e 68 19 1.0
e 68 104 1.0
e 68 33 1.0
e 68 51 1.0
e 68 95 1.0
e 68 113 24.0
e 69 5 3.0
e 69 0 1.0
e 69 36 31.0
e 69 62 1.0
e 69 63 1.0
e 69 83 1.0
e 69 28 1.0
e 69 127 1.0
e 70 149 2.0
e 70 31 1.0
e 70 13 2.0
e 70 44 1.0
e 70 9 2.0
e 70 60 2.0
e 70 63 1.0
e 71 30 3.0
e 71 103 34.0
e 71 109 35.0
e 71 7 14.0
e 71 100 25.0
e 71 32 26.0
e 71 119 26.0
e 71 113 31.0
e 72 0 2.0
e 72 135 1.0
e 72 4 2.0
e 72 6 2.0
e 72 132 1.0
e 72 117 1.0
e 72 5 15.0
e 72 80 2.0
e 73 14 1.0
e 73 22 1.0
e 73 149 1.0
e 73 88 1.0
e 73 36 23.0
e 73 60 1.0
e 73 15 1.0
e 74 129 1.0
e 74 117 1.0
e 74 91 2.0
e 74 33 1.0
e 74 114 32.0
e 74 58 2.0
e 74 152 1.0
e 74 150 2.0
e 75 152 1.0
e 75 135 3.0
e 75 67 1.0
e 75 129 1.0
e 75 98 1.0
e 75 49 2.0
e 75 39 1.0
e 76 31 1.0
e 76 58 1.0
e 76 141 13.0
e 76 98 1.0
e 76 114 6.0
e 76 118 1.0
e 76 124 1.0
e 76 79 1.0
e 77 139 44.0
e 77 6 45.0
e 77 54 36.0
e 77 129 27.0
e 77 68 37.0
e 77 62 35.0
e 77 2 9.0
e 78 114 36.0
e 78 50 1.0
e 78 133 2.0
e 78 106 1.0
e 78 157 1.0
e 78 12 2.0
e 78 9 1.0
e 78 137 40.0
e 79 104 3.0
e 79 122 1.0
e 79 146 1.0
e 79 36 26.0
e 79 127 2.0
e 79 99 1.0
e 79 30 2.0
e 80 65 1.0
e 80 27 1.0
e 80 30 1.0
e 80 127 2.0
e 80 42 1.0
e 80 89 1.0
e 80 137 33.0
e 80 36 44.0
e 81 136 1.0
e 81 137 17.0
e 81 28 1.0
e 81 13 1.0
e 81 35 1.0
e 81 70 1.0
e 81 39 1.0
e 81 101 1.0
e 82 60 1.0
e 82 40 1.0
e 82 136 1.0
e 82 12 2.0
e 82 94 1.0
e 82 105 1.0
e 82 53 2.0
e 82 79 2.0
e 83 140 1.0
e 83 125 1.0
e 83 43 3.0
e 83 61 1.0
e 83 58 2.0
e 83 147 25.0
e 83 87 1.0
e 84 68 1.0
e 84 18 2.0
e 84 51 2.0
e 84 32 1.0
e 84 138 1.0
e 84 43 1.0
e 84 88 1.0
e 84 54 1.0
e 85 40 1.0
e 85 2 2.0
e 85 49 2.0
e 85 80 1.0
e 85 83 2.0
e 85 132 1.0
e 85 155 33.0
e 85 87 1.0
e 86 90 2.0
e 86 77 20.0
e 86 141 15.0
e 86 60 1.0
e 86 80 1.0
e 86 109 1.0
e 86 96 1.0
e 86 57 1.0
e 87 8 1.0
e 87 13 1.0
e 87 53 1.0
e 87 94 1.0
e 87 10 1.0
e 87 143 2.0
e 88 58 3.0
e 88 67 1.0
e 88 135 1.0
e 88 21 1.0
e 88 35 1.0
e 88 126 1.0
e 88 66 1.0
e 88 61 1.0
e 89 42 1.0
e 89 26 1.0
e 89 70 2.0
e 89 44 1.0
e 89 128 1.0
e 89 22 1.0
e 89 5 32.0
e 89 34 1.0
e 90 6 1.0
e 90 19 1.0
e 90 105 1.0
e 90 0 2.0
e 90 16 25.0
e 90 76 1.0
e 90 124 2.0
e 90 138 1.0
e 91 66 10.0
e 91 110 7.0
e 91 32 42.0
e 91 50 6.0
e 91 34 39.0
e 91 56 25.0
e 91 23 42.0
e 91 82 21.0
e 92 83 1.0
e 92 50 1.0
e 92 148 1.0
e 92 38 1.0
e 92 77 40.0
e 92 132 1.0
e 92 27 1.0
e 93 103 1.0
e 93 132 1.0
e 93 49 1.0
e 93 149 1.0
e 93 92 1.0
e 93 80 1.0
e 93 58 2.0
e 94 111 1.0
e 94 115 13.0
e 94 96 1.0
e 94 102 37.0
e 94 80 1.0
e 94 28 1.0
e 94 116 1.0
e 95 24 18.0
e 95 60 1.0
e 95 100 1.0
e 95 152 3.0
e 95 57 2.0
e 95 146 1.0
e 96 57 1.0
e 96 104 1.0
e 96 155 23.0
e 96 50 1.0
e 96 98 1.0
e 96 107 2.0
e 96 32 1.0
e 96 43 1.0
e 97 145 41.0
e 97 120 1.0
e 97 134 1.0
e 97 119 2.0
e 97 62 1.0
e 97 35 1.0
e 97 70 2.0
e 97 123 1.0
e 98 16 6.0
e 98 51 1.0
e 98 86 1.0
e 98 1 1.0
e 98 39 1.0
e 98 135 1.0
e 98 22 1.0
e 98 71 40.0
e 99 89 2.0
e 99 1 2.0
e 99 91 27.0
e 99 76 2.0
e 99 26 2.0
e 99 33 2.0
e 99 109 1.0
e 99 40 1.0
e 100 77 2.0
e 100 59 11.0
e 100 156 1.0
e 100 118 1.0
e 100 122 1.0
e 100 144 1.0
e 100 115 29.0
e 100 134 1.0
e 101 127 2.0
e 101 67 1.0
e 101 14 1.0
e 101 80 1.0
e 101 26 1.0
e 101 158 1.0
e 101 17 2.0
e 101 132 1.0
e 102 118 27.0
e 102 49 46.0
e 102 11 30.0
e 102 68 12.0
e 102 105 41.0
e 102 135 40.0
e 102 69 2.0
e 102 151 41.0
e 103 143 1.0
e 103 32 1.0
e 103 88 1.0
e 103 28 1.0
e 103 113 3.0
e 103 16 23.0
e 103 58 2.0
e 103 140 1.0
e 104 72 1.0
e 104 102 32.0
e 104 129 1.0
e 104 100 1.0
e 104 53 2.0
e 104 82 1.0
e 104 99 1.0
e 104 48 41.0
e 105 113 13.0
e 105 15 1.0
e 105 91 16.0
e 105 27 1.0
e 105 12 1.0
e 105 125 2.0
e 105 3 1.0
e 106 57 1.0
e 106 47 2.0
e 106 33 1.0
e 106 18 1.0
e 106 95 1.0
e 106 134 1.0
e 106 58 1.0
e 106 0 1.0
e 107 74 2.0
e 107 147 31.0
e 107 22 1.0
e 107 53 2.0
e 107 0 1.0
e 107 105 2.0
e 107 72 1.0
e 107 45 2.0
e 108 83 1.0
e 108 29 1.0
e 108 155 15.0
e 108 124 1.0
e 108 141 25.0
e 108 146 3.0
e 108 3 1.0
e 108 46 1.0
e 109 5 4.0
e 109 25 1.0
e 109 14 1.0
e 109 62 1.0
e 109 111 1.0
e 109 17 2.0
e 110 114 24.0
e 110 52 1.0
e 110 57 2.0
e 110 33 1.0
e 110 76 1.0
e 110 69 1.0
e 110 124 1.0
e 110 102 41.0
e 111 1 1.0
e 111 100 1.0
e 111 68 1.0
e 111 64 1.0
e 111 157 2.0
e 111 45 1.0
e 111 128 1.0
e 111 56 1.0
e 112 0 1.0
e 112 28 1.0
e 112 132 1.0
e 112 158 1.0
e 112 135 1.0
e 112 154 11.0
e 112 6 1.0
e 112 101 1.0
e 113 89 35.0
e 113 132 14.0
e 113 10 8.0
e 113 98 6.0
e 113 102 26.0
e 113 104 47.0
e 113 100 22.0
e 113 149 28.0
e 114 148 4.0
e 114 151 1.0
e 114 112 37.0
e 114 144 34.0
e 114 40 15.0
e 114 43 43.0
e 114 86 2.0
e 115 98 42.0
e 115 124 35.0
e 115 114 10.0
e 115 129 36.0
e 115 152 25.0
e 115 65 6.0
e 115 45 16.0
e 116 127 2.0
e 116 5 12.0
e 116 3 1.0
e 116 10 1.0
e 116 147 49.0
e 116 115 18.0
e 116 88 1.0
e 116 120 1.0
e 117 15 1.0
e 117 62 2.0
e 117 43 3.0
e 117 80 3.0
e 117 66 1.0
e 117 69 1.0
e 117 44 1.0
e 117 64 2.0
e 118 47 1.0
e 118 9 1.0
e 118 4 1.0
e 118 145 30.0
e 118 15 1.0
e 118 157 2.0
e 118 10 1.0
e 119 9 1.0
e 119 110 1.0
e 119 26 1.0
e 119 84 1.0
e 119 116 1.0
e 119 8 1.0
e 119 0 1.0
e 119 30 1.0
e 120 136 1.0
e 120 38 1.0
e 120 48 25.0
e 120 100 1.0
e 120 24 36.0
e 120 80 1.0
e 121 125 2.0
e 121 85 1.0
e 121 79 1.0
e 121 48 14.0
e 121 94 1.0
e 121 5 1.0
e 121 8 1.0
e 121 41 1.0
e 122 121 1.0
e 122 65 1.0
e 122 16 13.0
e 122 3 1.0
e 122 92 1.0
e 122 4 1.0
e 122 151 1.0
e 122 26 1.0
e 123 101 1.0
e 123 35 1.0
e 123 145 3.0
e 123 84 2.0
e 123 64 1.0
e 123 60 1.0
e 123 137 6.0
e 123 107 1.0
e 124 61 2.0
e 124 9 1.0
e 124 65 1.0
e 124 149 1.0
e 124 51 1.0
e 124 94 1.0
e 124 71 28.0
e 125 86 1.0
e 125 14 2.0
e 125 130 2.0
e 125 151 3.0
e 125 40 1.0
e 125 60 1.0
e 125 13 1.0
e 125 77 7.0
e 126 121 1.0
e 126 153 1.0
e 126 152 2.0
e 126 4 1.0
e 126 105 1.0
e 126 31 1.0
e 126 84 2.0
e 127 61 1.0
e 127 150 2.0
e 127 155 36.0
e 127 136 2.0
e 127 96 2.0
e 127 70 2.0
e 127 44 2.0
e 128 27 1.0
e 128 42 1.0
e 128 135 1.0
e 128 119 1.0
e 128 140 1.0
e 128 85 1.0
e 128 117 1.0
e 129 135 1.0
e 129 38 1.0
e 129 69 1.0
e 129 149 1.0
e 129 18 1.0
e 129 106 1.0
e 129 39 1.0
e 130 139 2.0
e 130 99 2.0
e 130 136 1.0
e 130 89 1.0
e 130 67 2.0
e 130 17 1.0
e 130 72 1.0
e 131 2 1.0
e 131 83 1.0
e 131 88 1.0
e 131 36 20.0
e 131 95 2.0
e 131 114 4.0
e 131 30 1.0
e 132 45 1.0
e 132 61 2.0
e 132 54 1.0
e 132 147 17.0
e 132 20 1.0
e 132 139 1.0
e 132 100 1.0
e 133 123 1.0
e 133 157 1.0
e 133 100 1.0
e 133 38 2.0
e 133 120 2.0
e 133 138 1.0
e 133 144 1.0
e 133 5 4.0
e 134 27 1.0
e 134 24 22.0
e 134 128 1.0
e 134 82 1.0
e 134 63 1.0
e 134 68 1.0
e 134 105 1.0
e 134 53 1.0
e 135 116 1.0
e 135 139 1.0
e 135 120 1.0
e 135 27 1.0
e 135 25 1.0
e 135 67 1.0
e 135 134 1.0
e 136 116 1.0
e 136 74 1.0
e 136 76 1.0
e 136 94 1.0
e 136 8 1.0
e 136 146 1.0
e 136 107 1.0
e 136 65 1.0
e 137 117 6.0
e 137 154 32.0
e 137 77 24.0
e 137 157 5.0
e 137 146 4.0
e 137 130 28.0
e 137 54 28.0
e 138 112 1.0
e 138 118 1.0
e 138 12 3.0
e 138 131 1.0
e 138 31 1.0
e 138 23 14.0
e 138 14 1.0
e 138 119 1.0
e 139 120 1.0
e 139 4 1.0
e 139 64 1.0
e 139 106 1.0
e 139 3 1.0
e 139 89 1.0
e 139 96 1.0
e 139 121 1.0
e 140 53 2.0
e 140 17 1.0
e 140 39 1.0
e 140 4 1.0
e 140 79 1.0
e 140 122 1.0
e 140 57 2.0
e 141 91 9.0
e 141 92 34.0
e 141 77 44.0
e 141 33 44.0
e 141 105 18.0
e 141 18 9.0
e 141 106 33.0
e 141 129 16.0
e 142 49 1.0
e 142 131 1.0
e 142 11 2.0
e 142 109 1.0
e 142 87 1.0
e 142 88 1.0
e 142 151 2.0
e 142 24 27.0
e 143 141 7.0
e 143 144 1.0
e 143 54 1.0
e 143 75 1.0
e 143 114 36.0
e 143 88 1.0
e 143 96 1.0
e 143 25 1.0
e 144 90 1.0
e 144 88 1.0
e 144 135 1.0
e 144 16 8.0
e 144 157 1.0
e 144 93 1.0
e 144 77 10.0
e 145 73 17.0
e 145 25 12.0
e 145 34 26.0
e 145 65 16.0
e 145 112 21.0
e 145 21 5.0
e 145 139 46.0
e 146 54 1.0
e 146 14 1.0
e 146 153 1.0
e 146 152 2.0
e 146 94 1.0
e 146 150 1.0
e 146 135 2.0
e 146 68 2.0
e 147 69 25.0
e 147 0 13.0
e 147 143 26.0
e 147 86 30.0
e 147 153 20.0
e 147 48 48.0
e 147 129 12.0
e 148 61 1.0
e 148 58 2.0
e 148 87 2.0
e 148 13 1.0
e 148 116 1.0
e 148 88 1.0
e 148 94 1.0
e 148 113 36.0
e 149 152 1.0
e 149 78 1.0
e 149 12 3.0
e 149 108 1.0
e 149 158 1.0
e 149 86 1.0
e 149 104 1.0
e 149 102 3.0
e 150 156 1.0
e 150 11 1.0
e 150 80 1.0
e 150 110 1.0
e 150 37 1.0
e 150 10 1.0
e 151 49 2.0
e 151 56 1.0
e 151 101 1.0
e 151 46 1.0
e 151 47 1.0
e 151 28 1.0
e 151 97 2.0
e 151 123 1.0
e 152 58 1.0
e 152 143 1.0
e 152 0 1.0
e 152 122 1.0
e 152 131 1.0
e 152 59 46.0
e 152 56 1.0
e 152 113 10.0
e 153 29 1.0
e 153 71 44.0
e 153 37 1.0
e 153 87 1.0
e 153 121 1.0
e 153 114 3.0
e 153 102 48.0
e 154 78 38.0
e 154 45 42.0
e 154 26 4.0
e 154 144 31.0
e 154 1 22.0
e 154 108 38.0
e 154 91 8.0
e 154 76 27.0
e 155 16 24.0
e 155 71 26.0
e 155 66 7.0
e 155 132 46.0
e 155 65 49.0
e 155 135 46.0
e 155 70 13.0
e 155 110 48.0
e 156 14 1.0
e 156 143 1.0
e 156 22 1.0
e 156 97 1.0
e 156 19 1.0
e 156 21 1.0
e 156 129 1.0
e 156 136 1.0
e 157 63 1.0
e 157 130 1.0
e 157 35 1.0
e 157 64 2.0
e 157 29 2.0
e 157 47 1.0
e 157 79 1.0
e 157 61 1.0
e 158 128 1.0
e 158 108 1.0
e 158 70 1.0
e 158 50 1.0
e 158 113 10.0
e 158 48 19.0
e 159 53 1.0
e 159 32 2.0
e 159 111 2.0
e 159 141 43.0
e 159 1 1.0
e 159 104 1.0
e 159 103 1.0
e 159 44 2.0
